// FEASIBLE
// That case test is a feasible instance where the solution is at the limit of its feasibility
// The maximum consecutive hours is 6, the total worked hours is 10 and the presence of the
// nurse at the hospital is 12 hours
minHours=4;
maxHours=10;
maxConsec=6;
maxPresence=12;
demand=[0 0 1 1 1 1 1 1 0 1 0 1 1 1 0 0 0 0 0 0 0 0 0 0];
nNurses=1;